
Route #1: 19 37 12 39 27 22 8 43 
Route #2: 4 41 31 21 38 33 20 11 
Route #3: 16 30 29 25 26 32 23 
Route #4: 36 10 2 44 35 40 7 15 18 
Route #5: 28 34 13 42 5 1 
Route #6: 24 14 17 6 3 9 
cost 925.637
total time is 4.7